
Gurobi 9.0.1 (linux64) logging started Thu Apr 30 23:22:27 2020

Gurobi Optimizer version 9.0.1 build v9.0.1rc0 (linux64)
Optimize a model with 30902 rows, 27380 columns and 601320 nonzeros
Model fingerprint: 0x0153a7c2
Variable types: 0 continuous, 27380 integer (27342 binary)
Coefficient statistics:
  Matrix range     [1e+00, 2e+01]
  Objective range  [2e+00, 1e+02]
  Bounds range     [1e+00, 1e+00]
  RHS range        [1e+00, 1e+00]

User MIP start produced solution with objective 1132 (0.81s)
Loaded user MIP start with objective 1132

Presolve removed 11480 rows and 8064 columns (presolve time = 5s) ...
Presolve removed 11522 rows and 8124 columns
Presolve time: 9.96s
Presolved: 19380 rows, 19256 columns, 506400 nonzeros
Variable types: 0 continuous, 19256 integer (19220 binary)

Root simplex log...

Iteration    Objective       Primal Inf.    Dual Inf.      Time
       0    0.0000000e+00   2.600000e+02   0.000000e+00     12s
    2602    5.2300012e+02   1.941034e+04   0.000000e+00     15s
    4642    5.3125013e+02   1.836166e+04   0.000000e+00     20s
    6087    5.3275016e+02   1.261590e+04   0.000000e+00     25s
    7362    5.3300016e+02   7.522075e+03   0.000000e+00     30s
    8637    5.3818766e+02   2.868497e+03   0.000000e+00     35s
    9827    5.4054779e+02   6.338458e+03   0.000000e+00     40s
   11017    5.4268282e+02   8.008990e+03   0.000000e+00     45s
   12122    5.4337612e+02   2.936894e+03   0.000000e+00     50s
   13142    5.4346918e+02   4.217538e+04   0.000000e+00     55s
   14247    5.4443324e+02   4.697043e+03   0.000000e+00     60s
   15559    5.4661272e+02   1.445099e+04   0.000000e+00     65s
   16834    5.4879816e+02   6.254440e+03   0.000000e+00     70s
   17858    5.4931800e+02   5.453223e+03   0.000000e+00     75s
   18793    5.5036317e+02   2.325572e+03   0.000000e+00     80s
   19898    5.5231555e+02   3.227378e+03   0.000000e+00     85s
   20833    5.5280519e+02   5.566272e+03   0.000000e+00     90s
   21775    5.5338790e+02   4.674986e+04   0.000000e+00     95s
   22763    5.5377895e+02   1.033891e+04   0.000000e+00    100s
   23547    5.5437521e+02   1.071202e+04   0.000000e+00    105s
   24397    5.5542534e+02   3.413442e+03   0.000000e+00    110s
   25162    5.5621758e+02   1.129819e+04   0.000000e+00    115s
   25927    5.5663690e+02   1.645361e+04   0.000000e+00    120s
   26777    5.5730271e+02   2.233629e+03   0.000000e+00    125s
   27652    5.5769330e+02   2.148383e+03   0.000000e+00    130s
   28516    5.5823540e+02   1.359054e+04   0.000000e+00    135s
   29342    5.5842631e+02   1.157676e+03   0.000000e+00    140s
   30107    5.5864304e+02   7.641347e+03   0.000000e+00    145s
   30787    5.5874793e+02   2.160113e+03   0.000000e+00    150s
   31475    5.5904176e+02   1.105095e+03   0.000000e+00    155s
   32162    5.5916866e+02   1.928341e+03   0.000000e+00    161s
   32757    5.5925137e+02   1.555764e+03   0.000000e+00    165s
   33437    5.5939752e+02   7.731684e+02   0.000000e+00    171s
   34126    5.5963326e+02   3.044208e+02   0.000000e+00    175s
   34779    5.5975795e+02   4.106944e+03   0.000000e+00    180s
   35412    5.5997833e+02   5.740698e+03   0.000000e+00    185s
   36092    5.6029045e+02   5.835746e+02   0.000000e+00    190s
   36921    5.6040940e+02   1.306406e+03   0.000000e+00    195s
   37601    5.6069028e+02   6.986464e+03   0.000000e+00    201s
   38327    5.6084386e+02   5.322627e+02   0.000000e+00    205s
   39092    5.6113080e+02   8.795832e+02   0.000000e+00    211s
   39772    5.6132091e+02   1.197471e+03   0.000000e+00    215s
   40556    5.6144458e+02   2.405012e+02   0.000000e+00    220s
   41236    5.6156805e+02   1.283391e+03   0.000000e+00    225s
   42088    5.6172113e+02   4.759126e+02   0.000000e+00    231s
   42768    5.6186084e+02   8.016218e+01   0.000000e+00    236s
   43448    5.6196240e+02   2.204978e+01   0.000000e+00    241s
   43899    5.6199370e+02   0.000000e+00   0.000000e+00    245s

Root relaxation: objective 5.619937e+02, 43899 iterations, 233.92 seconds
Total elapsed time = 245.81s

    Nodes    |    Current Node    |     Objective Bounds      |     Work
 Expl Unexpl |  Obj  Depth IntInf | Incumbent    BestBd   Gap | It/Node Time

     0     0  561.99370    0 3710 1132.00000  561.99370  50.4%     -  254s
     0     0  600.11838    0 3753 1132.00000  600.11838  47.0%     -  524s
     0     0  603.44022    0 3767 1132.00000  603.44022  46.7%     -  612s
     0     0  604.55968    0 3751 1132.00000  604.55968  46.6%     -  658s
     0     0  604.57865    0 3750 1132.00000  604.57865  46.6%     -  667s
     0     0  604.57949    0 3738 1132.00000  604.57949  46.6%     -  669s
     0     0  615.98903    0 3802 1132.00000  615.98903  45.6%     -  912s
     0     0  616.46605    0 3739 1132.00000  616.46605  45.5%     -  960s
     0     0  616.48621    0 3743 1132.00000  616.48621  45.5%     -  969s
     0     0  616.48792    0 3753 1132.00000  616.48792  45.5%     -  974s
     0     0  623.49076    0 3844 1132.00000  623.49076  44.9%     - 1274s
     0     0  623.94717    0 3844 1132.00000  623.94717  44.9%     - 1338s
     0     0  624.00351    0 3800 1132.00000  624.00351  44.9%     - 1355s
     0     0  624.01545    0 3797 1132.00000  624.01545  44.9%     - 1365s
     0     0  627.40126    0 3867 1132.00000  627.40126  44.6%     - 1633s
     0     0  627.70996    0 3883 1132.00000  627.70996  44.5%     - 1683s
     0     0  627.74591    0 3876 1132.00000  627.74591  44.5%     - 1700s
     0     0  627.75301    0 3902 1132.00000  627.75301  44.5%     - 1708s
     0     0  629.03364    0 3926 1132.00000  629.03364  44.4%     - 1823s
     0     0  629.13450    0 3920 1132.00000  629.13450  44.4%     - 1862s
     0     0  629.16376    0 3915 1132.00000  629.16376  44.4%     - 1878s
     0     0  629.16770    0 3924 1132.00000  629.16770  44.4%     - 1886s
     0     0  630.41314    0 3957 1132.00000  630.41314  44.3%     - 2006s
     0     0  630.53993    0 3939 1132.00000  630.53993  44.3%     - 2043s
     0     0  630.57947    0 3951 1132.00000  630.57947  44.3%     - 2057s
     0     0  630.58962    0 3956 1132.00000  630.58962  44.3%     - 2064s
     0     0  631.78412    0 3925 1132.00000  631.78412  44.2%     - 2149s
     0     0  631.89213    0 3922 1132.00000  631.89213  44.2%     - 2189s
     0     0  631.91760    0 3941 1132.00000  631.91760  44.2%     - 2200s
     0     0  631.92136    0 3948 1132.00000  631.92136  44.2%     - 2204s
     0     0  632.39768    0 3958 1132.00000  632.39768  44.1%     - 2260s
     0     0  632.44453    0 3958 1132.00000  632.44453  44.1%     - 2305s
     0     0  632.46348    0 3961 1132.00000  632.46348  44.1%     - 2314s
     0     0  633.13468    0 3960 1132.00000  633.13468  44.1%     - 2378s
     0     0  633.31558    0 3974 1132.00000  633.31558  44.1%     - 2480s
     0     0  633.38072    0 3980 1132.00000  633.38072  44.0%     - 2502s
     0     0  633.39030    0 3979 1132.00000  633.39030  44.0%     - 2509s
     0     0  634.03174    0 3966 1132.00000  634.03174  44.0%     - 2579s
     0     0  634.09667    0 3966 1132.00000  634.09667  44.0%     - 2667s
     0     0  634.12681    0 3966 1132.00000  634.12681  44.0%     - 2679s
     0     0  634.13113    0 3973 1132.00000  634.13113  44.0%     - 2684s
     0     0  634.75301    0 3973 1132.00000  634.75301  43.9%     - 2750s
     0     0  634.86437    0 3964 1132.00000  634.86437  43.9%     - 2778s
     0     0  634.88258    0 3968 1132.00000  634.88258  43.9%     - 2785s
     0     0  634.99590    0 3972 1132.00000  634.99590  43.9%     - 2818s
     0     0  635.04530    0 3985 1132.00000  635.04530  43.9%     - 2940s
     0     0  635.05685    0 3989 1132.00000  635.05685  43.9%     - 2948s
     0     0  635.59231    0 3936 1132.00000  635.59231  43.9%     - 3005s
     0     0  635.69215    0 3953 1132.00000  635.69215  43.8%     - 3032s
     0     0  635.71294    0 3973 1132.00000  635.71294  43.8%     - 3044s
     0     0  636.01853    0 3963 1132.00000  636.01853  43.8%     - 3091s
     0     0  636.06958    0 3972 1132.00000  636.06958  43.8%     - 3117s
     0     0  636.10196    0 3963 1132.00000  636.10196  43.8%     - 3133s
     0     0  636.10958    0 3975 1132.00000  636.10958  43.8%     - 3140s
     0     0  636.64909    0 3968 1132.00000  636.64909  43.8%     - 3204s
     0     0  636.75006    0 3971 1132.00000  636.75006  43.7%     - 3233s
     0     0  636.78202    0 3985 1132.00000  636.78202  43.7%     - 3246s
     0     0  636.78647    0 3970 1132.00000  636.78647  43.7%     - 3252s
     0     0  637.17969    0 3973 1132.00000  637.17969  43.7%     - 3298s
     0     0  637.23748    0 3983 1132.00000  637.23748  43.7%     - 3320s
     0     0  637.25755    0 3983 1132.00000  637.25755  43.7%     - 3328s
     0     0  637.43945    0 3990 1132.00000  637.43945  43.7%     - 3363s
     0     0  637.48767    0 3994 1132.00000  637.48767  43.7%     - 3383s
     0     0  637.49550    0 4006 1132.00000  637.49550  43.7%     - 3390s
     0     0  637.91677    0 3988 1132.00000  637.91677  43.6%     - 3442s
     0     0  637.96607    0 3980 1132.00000  637.96607  43.6%     - 3462s
     0     0  637.97429    0 3980 1132.00000  637.97429  43.6%     - 3469s
     0     0  638.38939    0 3994 1132.00000  638.38939  43.6%     - 3523s
     0     0  638.45685    0 4013 1132.00000  638.45685  43.6%     - 3547s
     0     0  638.48012    0 4013 1132.00000  638.48012  43.6%     - 3556s
     0     0  638.57638    0 4019 1132.00000  638.57638  43.6%     - 3584s

Cutting planes:
  Cover: 1
  MIR: 161
  StrongCG: 23
  Zero half: 46
  Mod-K: 15
  RLT: 1855

Explored 1 nodes (323312 simplex iterations) in 3604.20 seconds
Thread count was 1 (of 40 available processors)

Solution count 1: 1132 

Time limit reached
Best objective 1.132000000000e+03, best bound 6.390000000000e+02, gap 43.5512%

User-callback calls 14635, time in user-callback 0.03 sec
